data/instances/vrp_files/train_62.vrp
NAME : 62
COMMENT : Generated instance No. 62
TYPE : CVRP
DIMENSION : 21
EDGE_WEIGHT_TYPE : EUC_2D
CAPACITY : 30
NODE_COORD_SECTION
 1 785 589
 2 131 854
 3 165 854
 4 490 406
 5 903 603
 6 576 558
 7 371 785
 8 252 938
 9 893 337
 10 729 573
 11 337 988
 12 25 252
 13 520 521
 14 588 751
 15 623 600
 16 53 376
 17 232 265
 18 554 199
 19 293 237
 20 948 944
 21 609 924
DEMAND_SECTION
1 0
2 5
3 1
4 9
5 7
6 2
7 6
8 2
9 1
10 7
11 2
12 2
13 5
14 5
15 7
16 1
17 8
18 3
19 4
20 9
21 4
DEPOT_SECTION
 1
 -1
EOF